(set-logic HORN)
(declare-datatypes ((Tok_0 0)) (((C_0 ) (D_0 ) (X_0 ) (Y_0 ) (Pl_0 ))))
(declare-datatypes ((list_0 0)) (((nil_0 ) (cons_0 (head_0 Tok_0) (tail_0 list_0)))))
(declare-datatypes ((E_0 0)) (((Plus_0 (projPlus_0 E_0) (projPlus_1 E_0)) (EX_0 ) (EY_0 ))))
(declare-fun diseqE_0 (E_0 E_0) Bool)
(declare-fun x_1 (list_0 list_0 list_0) Bool)
(declare-fun lin_0 (list_0 E_0) Bool)
(assert (forall ((x_45 E_0) (x_46 E_0))
	(diseqE_0 (Plus_0 x_45 x_46) EX_0)))
(assert (forall ((x_47 E_0) (x_48 E_0))
	(diseqE_0 (Plus_0 x_47 x_48) EY_0)))
(assert (forall ((x_49 E_0) (x_50 E_0))
	(diseqE_0 EX_0 (Plus_0 x_49 x_50))))
(assert (forall ((x_51 E_0) (x_52 E_0))
	(diseqE_0 EY_0 (Plus_0 x_51 x_52))))
(assert (diseqE_0 EX_0 EY_0))
(assert (diseqE_0 EY_0 EX_0))
(assert (forall ((x_53 E_0) (x_54 E_0) (x_55 E_0) (x_56 E_0))
	(=> (diseqE_0 x_53 x_55) (diseqE_0 (Plus_0 x_53 x_54) (Plus_0 x_55 x_56)))))
(assert (forall ((x_53 E_0) (x_54 E_0) (x_55 E_0) (x_56 E_0))
	(=> (diseqE_0 x_54 x_56) (diseqE_0 (Plus_0 x_53 x_54) (Plus_0 x_55 x_56)))))
(assert (forall ((x_5 list_0) (z_0 Tok_0) (xs_0 list_0) (y_1 list_0))
	(=> (x_1 x_5 xs_0 y_1) (x_1 (cons_0 z_0 x_5) (cons_0 z_0 xs_0) y_1))))
(assert (forall ((x_6 list_0))
	(x_1 x_6 nil_0 x_6)))
(assert (lin_0 (cons_0 Y_0 nil_0) EY_0))
(assert (lin_0 (cons_0 X_0 nil_0) EX_0))
(assert (forall ((x_10 list_0) (x_11 list_0) (x_12 list_0) (x_13 list_0) (x_14 list_0) (x_15 list_0) (a_0 E_0) (b_0 E_0))
	(=> (and (lin_0 x_10 a_0) (lin_0 x_11 b_0) (x_1 x_12 x_11 (cons_0 D_0 nil_0)) (x_1 x_13 (cons_0 D_0 (cons_0 Pl_0 (cons_0 C_0 nil_0))) x_12) (x_1 x_14 x_10 x_13) (x_1 x_15 (cons_0 C_0 nil_0) x_14)) (lin_0 x_15 (Plus_0 a_0 b_0)))))
(assert (forall ((x_16 list_0) (u_0 E_0) (v_0 E_0))
	(=> (and (diseqE_0 u_0 v_0) (lin_0 x_16 u_0) (lin_0 x_16 v_0)) false)))
(check-sat)
(get-model)
